c FILE: i160-204

c SOURCE: From steinlib

c DESCRIPTION: Steinlib instance with 160 nodes and 240 edges.

p edge 160 240
e 1 11
e 1 14
e 1 32
e 1 59
e 1 89
e 1 99
e 1 112
e 2 155
e 3 78
e 3 93
e 4 40
e 4 61
e 4 139
e 5 57
e 5 90
e 6 40
e 6 109
e 7 25
e 7 45
e 7 120
e 7 146
e 7 150
e 7 158
e 8 78
e 8 145
e 9 23
e 9 75
e 9 153
e 9 155
e 10 30
e 11 39
e 11 42
e 11 116
e 11 118
e 12 55
e 13 37
e 13 87
e 14 85
e 14 124
e 15 22
e 15 37
e 15 39
e 15 101
e 15 113
e 15 135
e 16 25
e 17 88
e 17 110
e 18 43
e 18 78
e 19 55
e 19 74
e 19 76
e 20 53
e 20 99
e 20 115
e 20 148
e 20 155
e 21 36
e 21 46
e 21 143
e 22 109
e 23 47
e 23 112
e 23 128
e 23 145
e 24 142
e 25 32
e 25 106
e 25 116
e 25 119
e 25 124
e 26 66
e 26 75
e 26 92
e 26 142
e 26 149
e 27 41
e 27 126
e 27 134
e 28 57
e 28 86
e 28 129
e 28 138
e 29 53
e 29 55
e 30 113
e 30 131
e 31 36
e 31 98
e 31 102
e 32 58
e 32 83
e 32 103
e 32 110
e 33 54
e 33 99
e 33 128
e 33 151
e 34 48
e 34 64
e 34 69
e 34 74
e 34 95
e 34 145
e 35 56
e 35 139
e 35 152
e 36 70
e 36 154
e 37 72
e 37 89
e 37 140
e 38 82
e 40 106
e 40 111
e 40 113
e 41 53
e 42 95
e 44 75
e 44 155
e 45 86
e 45 90
e 45 128
e 46 71
e 47 59
e 47 136
e 48 105
e 49 50
e 49 79
e 49 84
e 49 138
e 50 83
e 51 60
e 51 87
e 52 87
e 52 103
e 53 121
e 53 142
e 53 154
e 53 159
e 54 78
e 54 122
e 54 138
e 55 75
e 55 105
e 55 134
e 55 137
e 56 127
e 56 148
e 58 82
e 58 152
e 61 139
e 62 129
e 63 65
e 65 89
e 65 92
e 65 93
e 65 152
e 65 156
e 67 137
e 67 152
e 68 149
e 68 156
e 69 89
e 69 102
e 69 112
e 69 135
e 70 133
e 70 140
e 73 107
e 74 139
e 76 134
e 76 151
e 77 112
e 77 135
e 78 85
e 78 90
e 78 91
e 78 119
e 80 140
e 81 97
e 81 128
e 82 103
e 82 104
e 83 140
e 83 141
e 84 105
e 85 129
e 85 150
e 86 120
e 86 138
e 87 99
e 87 144
e 87 155
e 88 134
e 90 116
e 90 148
e 91 100
e 93 115
e 94 146
e 96 142
e 97 136
e 98 143
e 99 107
e 99 129
e 100 125
e 100 126
e 100 131
e 101 119
e 101 134
e 103 134
e 105 143
e 106 108
e 108 145
e 111 112
e 112 140
e 113 126
e 114 145
e 114 158
e 115 155
e 117 124
e 117 151
e 118 144
e 123 148
e 127 141
e 128 152
e 130 134
e 131 140
e 132 154
e 133 157
e 135 138
e 135 147
e 138 145
e 139 148
e 143 151
e 145 160
e 146 159
e 148 153
e 152 157
